n = 39;
rows = 234;
supports = [|
    1,2,
  | 1,3,
  | 1,4,
  | 1,37,
  | 1,38,
  | 1,39,
  | 2,1,
  | 2,3,
  | 2,4,
  | 2,5,
  | 2,38,
  | 2,39,
  | 3,1,
  | 3,2,
  | 3,4,
  | 3,5,
  | 3,6,
  | 3,39,
  | 4,1,
  | 4,2,
  | 4,3,
  | 4,5,
  | 4,6,
  | 4,7,
  | 5,2,
  | 5,3,
  | 5,4,
  | 5,6,
  | 5,7,
  | 5,8,
  | 6,3,
  | 6,4,
  | 6,5,
  | 6,7,
  | 6,8,
  | 6,9,
  | 7,4,
  | 7,5,
  | 7,6,
  | 7,8,
  | 7,9,
  | 7,10,
  | 8,5,
  | 8,6,
  | 8,7,
  | 8,9,
  | 8,10,
  | 8,11,
  | 9,6,
  | 9,7,
  | 9,8,
  | 9,10,
  | 9,11,
  | 9,12,
  | 10,7,
  | 10,8,
  | 10,9,
  | 10,11,
  | 10,12,
  | 10,13,
  | 11,8,
  | 11,9,
  | 11,10,
  | 11,12,
  | 11,13,
  | 11,14,
  | 12,9,
  | 12,10,
  | 12,11,
  | 12,13,
  | 12,14,
  | 12,15,
  | 13,10,
  | 13,11,
  | 13,12,
  | 13,14,
  | 13,15,
  | 13,16,
  | 14,11,
  | 14,12,
  | 14,13,
  | 14,15,
  | 14,16,
  | 14,17,
  | 15,12,
  | 15,13,
  | 15,14,
  | 15,16,
  | 15,17,
  | 15,18,
  | 16,13,
  | 16,14,
  | 16,15,
  | 16,17,
  | 16,18,
  | 16,19,
  | 17,14,
  | 17,15,
  | 17,16,
  | 17,18,
  | 17,19,
  | 17,20,
  | 18,15,
  | 18,16,
  | 18,17,
  | 18,19,
  | 18,20,
  | 18,21,
  | 19,16,
  | 19,17,
  | 19,18,
  | 19,20,
  | 19,21,
  | 19,22,
  | 20,17,
  | 20,18,
  | 20,19,
  | 20,21,
  | 20,22,
  | 20,23,
  | 21,18,
  | 21,19,
  | 21,20,
  | 21,22,
  | 21,23,
  | 21,24,
  | 22,19,
  | 22,20,
  | 22,21,
  | 22,23,
  | 22,24,
  | 22,25,
  | 23,20,
  | 23,21,
  | 23,22,
  | 23,24,
  | 23,25,
  | 23,26,
  | 24,21,
  | 24,22,
  | 24,23,
  | 24,25,
  | 24,26,
  | 24,27,
  | 25,22,
  | 25,23,
  | 25,24,
  | 25,26,
  | 25,27,
  | 25,28,
  | 26,23,
  | 26,24,
  | 26,25,
  | 26,27,
  | 26,28,
  | 26,29,
  | 27,24,
  | 27,25,
  | 27,26,
  | 27,28,
  | 27,29,
  | 27,30,
  | 28,25,
  | 28,26,
  | 28,27,
  | 28,29,
  | 28,30,
  | 28,31,
  | 29,26,
  | 29,27,
  | 29,28,
  | 29,30,
  | 29,31,
  | 29,32,
  | 30,27,
  | 30,28,
  | 30,29,
  | 30,31,
  | 30,32,
  | 30,33,
  | 31,28,
  | 31,29,
  | 31,30,
  | 31,32,
  | 31,33,
  | 31,34,
  | 32,29,
  | 32,30,
  | 32,31,
  | 32,33,
  | 32,34,
  | 32,35,
  | 33,30,
  | 33,31,
  | 33,32,
  | 33,34,
  | 33,35,
  | 33,36,
  | 34,31,
  | 34,32,
  | 34,33,
  | 34,35,
  | 34,36,
  | 34,37,
  | 35,32,
  | 35,33,
  | 35,34,
  | 35,36,
  | 35,37,
  | 35,38,
  | 36,33,
  | 36,34,
  | 36,35,
  | 36,37,
  | 36,38,
  | 36,39,
  | 37,1,
  | 37,34,
  | 37,35,
  | 37,36,
  | 37,38,
  | 37,39,
  | 38,1,
  | 38,2,
  | 38,35,
  | 38,36,
  | 38,37,
  | 38,39,
  | 39,1,
  | 39,2,
  | 39,3,
  | 39,36,
  | 39,37,
  | 39,38 |];

t = 46;

indexes = [|
    0,5,
  | 0,29,
  | 1,8,
  | 1,35,
  | 2,23,
  | 2,25,
  | 2,35,
  | 3,21,
  | 4,29,
  | 5,11,
  | 6,25,
  | 7,14,
  | 7,21,
  | 7,22,
  | 8,24,
  | 8,32,
  | 9,12,
  | 10,34,
  | 10,38,
  | 11,38,
  | 12,17,
  | 12,29,
  | 13,32,
  | 13,35,
  | 14,33,
  | 15,22,
  | 15,26,
  | 15,27,
  | 16,31,
  | 17,18,
  | 17,19,
  | 17,31,
  | 18,31,
  | 19,36,
  | 20,32,
  | 21,33,
  | 22,30,
  | 26,27,
  | 26,36,
  | 27,29,
  | 28,34,
  | 28,38,
  | 30,35,
  | 33,34,
  | 34,37,
  | 35,36 |];

